(set-info :smt-lib-version 2.6)
(set-info :category "crafted")
(set-logic QF_FFA)
(define-sort FF0 () (_ FiniteField 52435875175126190479447740508185965837690552500527637822603658699938581184513))
(declare-fun return_n1_alt () FF0)
(declare-fun mul_n13_alt () FF0)
(declare-fun mul_n21_alt () FF0)
(declare-fun k_n3_alt () FF0)
(declare-fun mul_n14_alt () FF0)
(declare-fun mul_n20_alt () FF0)
(declare-fun mul_n15_alt () FF0)
(declare-fun b_n10_alt () FF0)
(declare-fun e_n4_alt () FF0)
(declare-fun mul_n19_alt () FF0)
(declare-fun l_n0_alt () FF0)
(declare-fun mul_n18_alt () FF0)
(declare-fun j_n5_alt () FF0)
(declare-fun mul_n17_alt () FF0)
(declare-fun g_n11_alt () FF0)
(declare-fun mul_n16_alt () FF0)
(declare-fun d_n6_alt () FF0)
(declare-fun a_n12_alt () FF0)
(declare-fun i_n7_alt () FF0)
(declare-fun h_n9_alt () FF0)
(declare-fun return_n1 () FF0)
(declare-fun mul_n13 () FF0)
(declare-fun mul_n21 () FF0)
(declare-fun k_n3 () FF0)
(declare-fun mul_n14 () FF0)
(declare-fun mul_n20 () FF0)
(declare-fun mul_n15 () FF0)
(declare-fun b_n10 () FF0)
(declare-fun e_n4 () FF0)
(declare-fun mul_n19 () FF0)
(declare-fun l_n0 () FF0)
(declare-fun mul_n18 () FF0)
(declare-fun j_n5 () FF0)
(declare-fun mul_n17 () FF0)
(declare-fun g_n11 () FF0)
(declare-fun mul_n16 () FF0)
(declare-fun d_n6 () FF0)
(declare-fun a_n12 () FF0)
(declare-fun i_n7 () FF0)
(declare-fun h_n9 () FF0)
(declare-fun c_n8_alt () FF0)
(declare-fun c_n8 () FF0)
(declare-fun f_n2_alt () FF0)
(declare-fun f_n2 () FF0)
(assert 
  (let ((let0 return_n1_alt))
  (let ((let1 (as ff1 FF0)))
  (let ((let2 (as ff52435875175126190479447740508185965837690552500527637822603658699938581184512 FF0)))
  (let ((let3 mul_n13_alt))
  (let ((let4 (ff.mul let3 let2)))
  (let ((let5 (ff.add let4 let1)))
  (let ((let6 mul_n21_alt))
  (let ((let7 (ff.mul let6 let5)))
  (let ((let8 (= let7 let0)))
  (let ((let9 k_n3_alt))
  (let ((let10 mul_n14_alt))
  (let ((let11 (ff.add let10 let9)))
  (let ((let12 mul_n20_alt))
  (let ((let13 (ff.mul let12 let11)))
  (let ((let14 (= let13 let6)))
  (let ((let15 mul_n15_alt))
  (let ((let16 b_n10_alt))
  (let ((let17 (ff.mul let16 let2)))
  (let ((let18 e_n4_alt))
  (let ((let19 (ff.mul let18 let2)))
  (let ((let20 (ff.add let19 let17 let15 let1)))
  (let ((let21 mul_n19_alt))
  (let ((let22 (ff.mul let21 let20)))
  (let ((let23 (= let22 let12)))
  (let ((let24 l_n0_alt))
  (let ((let25 mul_n18_alt))
  (let ((let26 (ff.mul let25 let24)))
  (let ((let27 (= let26 let21)))
  (let ((let28 j_n5_alt))
  (let ((let29 mul_n17_alt))
  (let ((let30 (ff.mul let29 let28)))
  (let ((let31 (= let30 let25)))
  (let ((let32 g_n11_alt))
  (let ((let33 mul_n16_alt))
  (let ((let34 (ff.mul let33 let32)))
  (let ((let35 (= let34 let29)))
  (let ((let36 (as ff2 FF0)))
  (let ((let37 (ff.mul let16 let36)))
  (let ((let38 (ff.mul let37 let18)))
  (let ((let39 (= let38 let15)))
  (let ((let40 (ff.mul let9 let2)))
  (let ((let41 d_n6_alt))
  (let ((let42 (ff.add let41 let40)))
  (let ((let43 a_n12_alt))
  (let ((let44 (ff.mul let43 let42)))
  (let ((let45 (= let44 let10)))
  (let ((let46 i_n7_alt))
  (let ((let47 (ff.mul let46 let2)))
  (let ((let48 (ff.add let47 let1)))
  (let ((let49 h_n9_alt))
  (let ((let50 (ff.mul let49 let48)))
  (let ((let51 (= let50 let3)))
  (let ((let52 (and let51 let45 let39 let35 let31 let27 let23 let14 let8)))
  (let ((let53 return_n1))
  (let ((let54 mul_n13))
  (let ((let55 (ff.mul let54 let2)))
  (let ((let56 (ff.add let55 let1)))
  (let ((let57 mul_n21))
  (let ((let58 (ff.mul let57 let56)))
  (let ((let59 (= let58 let53)))
  (let ((let60 k_n3))
  (let ((let61 mul_n14))
  (let ((let62 (ff.add let61 let60)))
  (let ((let63 mul_n20))
  (let ((let64 (ff.mul let63 let62)))
  (let ((let65 (= let64 let57)))
  (let ((let66 mul_n15))
  (let ((let67 b_n10))
  (let ((let68 (ff.mul let67 let2)))
  (let ((let69 e_n4))
  (let ((let70 (ff.mul let69 let2)))
  (let ((let71 (ff.add let70 let68 let66 let1)))
  (let ((let72 mul_n19))
  (let ((let73 (ff.mul let72 let71)))
  (let ((let74 (= let73 let63)))
  (let ((let75 l_n0))
  (let ((let76 mul_n18))
  (let ((let77 (ff.mul let76 let75)))
  (let ((let78 (= let77 let72)))
  (let ((let79 j_n5))
  (let ((let80 mul_n17))
  (let ((let81 (ff.mul let80 let79)))
  (let ((let82 (= let81 let76)))
  (let ((let83 g_n11))
  (let ((let84 mul_n16))
  (let ((let85 (ff.mul let84 let83)))
  (let ((let86 (= let85 let80)))
  (let ((let87 (ff.mul let67 let36)))
  (let ((let88 (ff.mul let87 let69)))
  (let ((let89 (= let88 let66)))
  (let ((let90 (ff.mul let60 let2)))
  (let ((let91 d_n6))
  (let ((let92 (ff.add let91 let90)))
  (let ((let93 a_n12))
  (let ((let94 (ff.mul let93 let92)))
  (let ((let95 (= let94 let61)))
  (let ((let96 i_n7))
  (let ((let97 (ff.mul let96 let2)))
  (let ((let98 (ff.add let97 let1)))
  (let ((let99 h_n9))
  (let ((let100 (ff.mul let99 let98)))
  (let ((let101 (= let100 let54)))
  (let ((let102 (and let101 let95 let89 let86 let82 let78 let74 let65 let59)))
  (let ((let103 (= let53 let0)))
  (let ((let104 (not let103)))
  (let ((let105 c_n8_alt))
  (let ((let106 c_n8))
  (let ((let107 (= let106 let105)))
  (let ((let108 (= let93 let43)))
  (let ((let109 (= let91 let41)))
  (let ((let110 (= let60 let9)))
  (let ((let111 (= let75 let24)))
  (let ((let112 (= let99 let49)))
  (let ((let113 (= let96 let46)))
  (let ((let114 (= let79 let28)))
  (let ((let115 (= let69 let18)))
  (let ((let116 f_n2_alt))
  (let ((let117 f_n2))
  (let ((let118 (= let117 let116)))
  (let ((let119 (= let67 let16)))
  (let ((let120 (= let83 let32)))
  (let ((let121 (and let120 let119 let118 let115 let114 let113 let112 let111 let110 let109 let108 let107)))
  (let ((let122 (and let121 let104 let102 let52)))
  let122
)))))))))))))))))))))))))))))))))))))))))))))))))))))))))))))))))))))))))))))))))))))))))))))))))))))))))))))))))))))))))))
)
(check-sat)
